Minimize
  obj: 0
Subject To
 
\true constraint
c0:  + 557 x0 + 898 x1 + 148 x2 + 63 x3 + 78 x4 + 964 x5 + 246 x6 + 662 x7 + 386 x8 + 272 x9 <= 2137
 
\multiple objectives
c1:  - 566 x0 - 611 x1 - 506 x2 - 180 x3 - 817 x4 - 184 x5 - 585 x6 - 423 x7 - 26 x8 - 317 x9 < 1
c2:  - 62 x0 - 84 x1 - 977 x2 - 979 x3 - 874 x4 - 54 x5 - 269 x6 - 93 x7 - 881 x8 - 563 x9 < 2
c3:  - 664 x0 - 982 x1 - 962 x2 - 140 x3 - 224 x4 - 215 x5 - 12 x6 - 869 x7 - 332 x8 - 537 x9 < 3

BINARY
x0 x1 x2 x3 x4 x5 x6 x7 x8 x9
End
